Read MPS format model from file dat/rmp/DER_48_32768_47.mps
Reading time = 3.33 seconds
: 32816 rows, 225424 columns, 9789694 nonzeros
Gurobi Optimizer version 9.0.0 build v9.0.0rc2 (linux64)
Optimize a model with 32816 rows, 225424 columns and 9789694 nonzeros
Model fingerprint: 0xf6e63b12
Coefficient statistics:
  Matrix range     [6e-05, 1e+01]
  Objective range  [3e-01, 1e+03]
  Bounds range     [2e+05, 2e+05]
  RHS range        [1e+00, 1e+00]
Ordering time: 0.05s

Barrier statistics:
 AA' NZ     : 1.496e+06
 Factor NZ  : 1.882e+06 (roughly 120 MBytes of memory)
 Factor Ops : 1.112e+08 (less than 1 second per iteration)
 Threads    : 1

                  Objective                Residual
Iter       Primal          Dual         Primal    Dual     Compl     Time
   0   2.84074160e+09 -2.17782985e+08  2.38e+08 5.79e-03  4.45e+05     2s
   1   4.08268263e+07 -3.23177335e+07  3.09e+06 3.64e-12  5.93e+03     3s
   2   2.86510322e+06 -1.41728172e+07  2.09e+05 3.64e-12  4.56e+02     3s
   3   1.24386913e+05 -9.05789494e+06  1.80e+03 3.64e-12  4.36e+01     4s
   4   9.79810988e+04 -5.31896032e+04  1.21e-09 2.73e-12  6.70e-01     4s
   5   9.76827768e+04  8.01411705e+04  1.65e-09 1.82e-12  7.78e-02     5s
   6   9.68066432e+04  9.36825070e+04  1.58e-09 2.73e-12  1.39e-02     5s
   7   9.65018294e+04  9.51749334e+04  1.12e-09 3.64e-12  5.88e-03     6s
   8   9.61331562e+04  9.55126172e+04  1.16e-09 3.64e-12  2.75e-03     7s
   9   9.59477802e+04  9.57242119e+04  3.01e-09 3.64e-12  9.92e-04     7s
  10   9.58531459e+04  9.57746564e+04  4.46e-09 1.82e-12  3.48e-04     8s
  11   9.58340890e+04  9.57878742e+04  3.40e-09 1.82e-12  2.05e-04     9s
  12   9.58174318e+04  9.57993493e+04  5.80e-09 3.64e-12  8.02e-05    10s
  13   9.58103864e+04  9.58068266e+04  6.53e-09 3.64e-12  1.58e-05    10s
  14   9.58093884e+04  9.58073434e+04  8.75e-09 3.64e-12  9.07e-06    11s
  15   9.58091609e+04  9.58076364e+04  1.13e-08 3.71e-12  6.76e-06    12s
  16   9.58090054e+04  9.58077308e+04  1.46e-08 3.52e-12  5.65e-06    12s
  17   9.58088181e+04  9.58079276e+04  1.60e-08 3.07e-12  3.95e-06    13s
  18   9.58086984e+04  9.58080225e+04  2.70e-08 3.81e-12  3.00e-06    14s
  19   9.58086106e+04  9.58080949e+04  3.39e-08 5.40e-12  2.29e-06    14s
  20   9.58085709e+04  9.58081443e+04  4.13e-08 6.93e-12  1.89e-06    15s
  21   9.58085182e+04  9.58081960e+04  5.47e-08 7.90e-12  1.43e-06    15s
  22   9.58084681e+04  9.58082313e+04  9.55e-08 9.09e-12  1.05e-06    16s
  23   9.58084440e+04  9.58082480e+04  1.20e-07 9.66e-12  8.69e-07    16s
  24   9.58084170e+04  9.58082653e+04  1.51e-07 8.79e-12  6.73e-07    17s
  25   9.58083943e+04  9.58082776e+04  3.34e-07 8.57e-12  5.17e-07    17s
  26   9.58083783e+04  9.58082921e+04  3.58e-07 7.28e-12  3.82e-07    18s
  27   9.58083603e+04  9.58083007e+04  3.68e-07 6.63e-12  2.64e-07    19s
  28   9.58083483e+04  9.58083063e+04  4.59e-07 5.48e-12  1.86e-07    19s
  29   9.58083368e+04  9.58083109e+04  5.81e-07 3.96e-12  1.15e-07    20s
  30   9.58083287e+04  9.58083128e+04  5.96e-07 3.12e-12  7.04e-08    20s
  31   9.58083214e+04  9.58083148e+04  7.63e-07 1.91e-12  2.92e-08    21s
  32   9.58083168e+04  9.58083159e+04  9.74e-07 1.82e-12  4.22e-09    22s

Barrier solved model in 32 iterations and 21.60 seconds
Optimal objective 9.58083168e+04

Solve time: 21.613038543
Barrier iterations: 32
